(set-info :smt-lib-version 2.6)
(set-logic QF_UFLRA)
(set-info :source |
MathSat group

|)
(set-info :category "random")
(set-info :status sat)
(declare-fun x0 () Real)
(declare-fun x1 () Real)
(declare-fun x2 () Real)
(declare-fun x3 () Real)
(declare-fun x4 () Real)
(declare-fun x5 () Real)
(declare-fun x6 () Real)
(declare-fun x7 () Real)
(declare-fun x8 () Real)
(declare-fun x9 () Real)
(declare-fun x10 () Real)
(declare-fun x11 () Real)
(declare-fun x12 () Real)
(declare-fun x13 () Real)
(declare-fun x14 () Real)
(declare-fun x15 () Real)
(declare-fun x16 () Real)
(declare-fun x17 () Real)
(declare-fun x18 () Real)
(declare-fun x19 () Real)
(declare-fun x20 () Real)
(declare-fun x21 () Real)
(declare-fun x22 () Real)
(declare-fun x23 () Real)
(declare-fun x24 () Real)
(declare-fun x25 () Real)
(declare-fun x26 () Real)
(declare-fun x27 () Real)
(declare-fun x28 () Real)
(declare-fun x29 () Real)
(declare-fun x30 () Real)
(declare-fun x31 () Real)
(declare-fun x32 () Real)
(declare-fun x33 () Real)
(declare-fun x34 () Real)
(declare-fun x35 () Real)
(declare-fun x36 () Real)
(declare-fun x37 () Real)
(declare-fun x38 () Real)
(declare-fun x39 () Real)
(declare-fun x40 () Real)
(declare-fun x41 () Real)
(declare-fun x42 () Real)
(declare-fun x43 () Real)
(declare-fun x44 () Real)
(declare-fun x45 () Real)
(declare-fun x46 () Real)
(declare-fun x47 () Real)
(declare-fun x48 () Real)
(declare-fun x49 () Real)
(declare-fun f0_1 (Real) Real)
(declare-fun f0_2 (Real Real) Real)
(declare-fun f0_3 (Real Real Real) Real)
(declare-fun f0_4 (Real Real Real Real) Real)
(declare-fun P0 () Bool)
(declare-fun P1 () Bool)
(declare-fun P2 () Bool)
(declare-fun P3 () Bool)
(declare-fun P4 () Bool)
(declare-fun P5 () Bool)
(declare-fun P6 () Bool)
(declare-fun P7 () Bool)
(declare-fun P8 () Bool)
(declare-fun P9 () Bool)
(declare-fun P10 () Bool)
(declare-fun P11 () Bool)
(declare-fun P12 () Bool)
(declare-fun P13 () Bool)
(declare-fun P14 () Bool)
(declare-fun P15 () Bool)
(declare-fun P16 () Bool)
(declare-fun P17 () Bool)
(declare-fun P18 () Bool)
(declare-fun P19 () Bool)
(declare-fun P20 () Bool)
(declare-fun P21 () Bool)
(declare-fun P22 () Bool)
(declare-fun P23 () Bool)
(declare-fun P24 () Bool)
(declare-fun P25 () Bool)
(declare-fun P26 () Bool)
(declare-fun P27 () Bool)
(declare-fun P28 () Bool)
(declare-fun P29 () Bool)
(declare-fun P30 () Bool)
(declare-fun P31 () Bool)
(declare-fun P32 () Bool)
(declare-fun P33 () Bool)
(declare-fun P34 () Bool)
(declare-fun P35 () Bool)
(declare-fun P36 () Bool)
(declare-fun P37 () Bool)
(declare-fun P38 () Bool)
(declare-fun P39 () Bool)
(declare-fun P40 () Bool)
(declare-fun P41 () Bool)
(declare-fun P42 () Bool)
(declare-fun P43 () Bool)
(declare-fun P44 () Bool)
(declare-fun P45 () Bool)
(declare-fun P46 () Bool)
(declare-fun P47 () Bool)
(declare-fun P48 () Bool)
(declare-fun P49 () Bool)
(assert (let ((?v_169 (* 10 x47)) (?v_29 (* 3 x29))) (let ((?v_78 (< (- (+ (* 22 x27) ?v_29) (* 14 x6)) 14)) (?v_109 (< (- (+ (* 3 x3) (* 27 x14)) (* 10 x49)) 5)) (?v_77 (* 9 x34)) (?v_26 (* 9 x33)) (?v_92 (* 19 x34)) (?v_86 (< (- (- (* 24 x29) (* 16 x36)) (* 23 x15)) 3)) (?v_5 (f0_1 x43))) (let ((?v_63 (= ?v_5 x37)) (?v_65 (f0_1 x20))) (let ((?v_122 (= (f0_2 x2 x41) ?v_65)) (?v_7 (f0_1 x32))) (let ((?v_147 (= ?v_7 x43)) (?v_35 (distinct x7 ?v_7)) (?v_48 (distinct x11 ?v_5)) (?v_239 (distinct x38 (f0_2 x36 x48))) (?v_45 (distinct x29 x36)) (?v_259 (= x15 (f0_2 x39 x49))) (?v_227 (= (f0_1 x30) (f0_2 x32 x5))) (?v_54 (= (f0_2 x14 x36) (f0_2 x49 x20))) (?v_95 (f0_1 x22))) (let ((?v_137 (distinct ?v_95 (f0_1 x40))) (?v_3 (= x42 (f0_2 x31 x12))) (?v_166 (distinct x36 ?v_95)) (?v_68 (distinct (f0_2 x24 x19) (f0_1 x44))) (?v_8 (f0_1 x19))) (let ((?v_12 (distinct x33 ?v_8)) (?v_163 (f0_1 x49))) (let ((?v_189 (distinct ?v_163 (f0_2 x15 x37))) (?v_13 (= (f0_2 x41 x38) (f0_2 x5 x30))) (?v_168 (= (f0_2 x28 x28) x46)) (?v_101 (= (f0_2 x0 x20) (f0_2 x19 x24))) (?v_42 (= ?v_8 (f0_2 x12 x41))) (?v_97 (distinct (f0_1 x0) x31)) (?v_58 (distinct x31 x13)) (?v_164 (distinct (f0_2 x0 x41) (f0_2 x44 x45))) (?v_112 (= (f0_1 x7) (f0_2 x31 x48))) (?v_117 (distinct (f0_2 x46 x21) (f0_1 x12))) (?v_27 (f0_1 x15))) (let ((?v_67 (distinct ?v_27 x18)) (?v_123 (distinct x27 (f0_2 x9 x40))) (?v_104 (= ?v_27 ?v_65)) (?v_131 (= (f0_2 x36 x1) x6)) (?v_81 (= (f0_2 x34 x28) (f0_1 x24))) (?v_23 (f0_1 x6)) (?v_24 (f0_1 x4))) (let ((?v_85 (= ?v_23 ?v_24)) (?v_10 (f0_1 x10)) (?v_60 (f0_1 x25))) (let ((?v_14 (= ?v_10 ?v_60)) (?v_32 (distinct x15 (f0_1 x21))) (?v_53 (distinct (f0_2 x38 x26) ?v_23)) (?v_61 (distinct (f0_1 x36) ?v_10)) (?v_120 (= x25 x29)) (?v_75 (= (f0_2 x21 x49) (f0_1 x29))) (?v_139 (= (f0_2 x35 x16) x39)) (?v_18 (distinct x30 (f0_2 x0 x6))) (?v_57 (= (f0_2 x18 x12) x45)) (?v_31 (= ?v_24 ?v_7)) (?v_126 (distinct (f0_2 x15 x15) ?v_60)) (?v_178 (= (f0_2 x26 x3) ?v_163)) (?v_170 (= (f0_2 x2 x36) x42)) (?v_9 (= x37 (f0_2 x22 x14))) (?v_49 (= (f0_1 x14) (f0_2 x33 x21))) (?v_40 (= ?v_27 (f0_2 x40 x17))) (?v_173 (distinct (f0_2 x3 x10) x1)) (?v_90 (distinct (f0_2 x45 x18) (f0_1 x8))) (?v_55 (distinct x32 (f0_2 x15 x2)))) (let ((?v_156 (not ?v_139)) (?v_69 (not ?v_164)) (?v_103 (not ?v_97)) (?v_94 (not ?v_40)) (?v_2 (not P26)) (?v_199 (not ?v_48)) (?v_25 (not P9)) (?v_15 (not P11)) (?v_6 (not P1)) (?v_159 (not P28)) (?v_113 (not ?v_9)) (?v_38 (not P43)) (?v_59 (not P19)) (?v_151 (not ?v_63)) (?v_202 (not ?v_78)) (?v_115 (not ?v_239)) (?v_62 (not ?v_259)) (?v_194 (not P34)) (?v_72 (not P33)) (?v_152 (not P12)) (?v_71 (not P23)) (?v_16 (not P29)) (?v_187 (not ?v_12)) (?v_21 (not ?v_68)) (?v_98 (not P16)) (?v_30 (not P32)) (?v_56 (not ?v_13)) (?v_28 (not ?v_170)) (?v_203 (not ?v_120)) (?v_73 (not ?v_18)) (?v_125 (not ?v_45)) (?v_177 (not ?v_117)) (?v_51 (not P25)) (?v_124 (not P41)) (?v_154 (not ?v_131)) (?v_108 (not ?v_31)) (?v_183 (not ?v_32)) (?v_121 (not P27)) (?v_184 (not P0)) (?v_43 (not ?v_35)) (?v_237 (not ?v_123)) (?v_114 (not P14)) (?v_76 (not P3)) (?v_134 (not P38)) (?v_218 (not ?v_42)) (?v_84 (not ?v_14)) (?v_225 (not ?v_173)) (?v_204 (not ?v_49)) (?v_105 (not ?v_227)) (?v_182 (not ?v_58)) (?v_145 (not ?v_126)) (?v_66 (not ?v_109)) (?v_228 (not P44)) (?v_192 (not ?v_67)) (?v_224 (not P36)) (?v_153 (not ?v_57)) (?v_133 (not ?v_75)) (?v_102 (not ?v_81)) (?v_148 (not ?v_85)) (?v_88 (not ?v_86)) (?v_179 (not P47)) (?v_138 (not ?v_3)) (?v_93 (not ?v_147)) (?v_260 (not P4)) (?v_215 (not ?v_90)) (?v_111 (not ?v_61)) (?v_249 (not ?v_55)) (?v_127 (not P2)) (?v_230 (not P37)) (?v_128 (not ?v_53)) (?v_193 (not ?v_122)) (?v_229 (not P18)) (?v_140 (not P39)) (?v_136 (not P22)) (?v_165 (not P42)) (?v_206 (not P45)) (?v_231 (not ?v_137)) (?v_262 (not P10)) (?v_264 (not P8)) (?v_186 (not ?v_104)) (?v_248 (not ?v_101)) (?v_254 (not ?v_54)) (?v_250 (not P31)) (?v_175 (not P13)) (?v_190 (not P6)) (?v_244 (not P5)) (?v_219 (not P7)) (?v_208 (not ?v_178)) (?v_233 (not P46)) (?v_205 (not ?v_166)) (?v_223 (not ?v_189)) (?v_247 (or ?v_45 ?v_139)) (?v_211 (not P40)) (?v_221 (not P35)) (?v_243 (not ?v_112)) (?v_245 (not P48)) (?v_220 (not P15)) (?v_251 (not P20)) (?v_226 (not P21)) (?v_266 (not P49)) (?v_235 (not P24)) (?v_241 (not P17)) (?v_256 (not P30)) (?v_267 (not ?v_168)) (?v_181 (<= (+ (* 4 x3) (* 23 x11)) 16))) (let ((?v_99 (not ?v_181)) (?v_19 (<= (- (- 0 (* 17 x35)) (* 24 x34)) 14)) (?v_210 (<= (+ (- 0 (* 7 x12)) (* 20 x46)) 26)) (?v_64 (< (+ (* 23 x8) (* 24 x42) (* 27 x31)) 0))) (let ((?v_106 (not ?v_64)) (?v_36 (not ?v_19)) (?v_172 (= (+ (* 5 x2) (* 9 x42) (* 9 x47)) 5))) (let ((?v_185 (not ?v_172)) (?v_110 (<= (+ (* 4 x32) ?v_26 (* 18 x5)) 27)) (?v_141 (<= (- (- (* 25 x13) 0) (* 3 x46)) 17))) (let ((?v_129 (not ?v_141)) (?v_82 (< (- (+ ?v_77 (* 4 x30)) x48) 3))) (let ((?v_149 (not ?v_82)) (?v_200 (not ?v_110)) (?v_258 (not ?v_210))) (let ((?v_263 (or ?v_140 ?v_149)) (?v_0 (= (+ (- (* 6 x16) (* 2 x16)) (* 19 x33)) (- 29))) (?v_89 (< (+ (* 4 x2) (* 17 x41) (* 17 x47)) (- 25))) (?v_1 (<= (- (- (* (- 6) x46) (* 17 x6)) (* 16 x1)) 16))) (let ((?v_197 (not ?v_1)) (?v_22 (<= (- (- (* (- 20) x32) (* 25 x17)) (* 18 x35)) (- 18)))) (let ((?v_116 (not ?v_22)) (?v_74 (< (+ (- (* 17 x15) 0) (* 13 x39)) (- 25))) (?v_4 (<= (+ (- (* 17 x20) (* 27 x11)) ?v_92) (- 25)))) (let ((?v_242 (not ?v_4)) (?v_11 (< (+ (* (- 12) x23) ?v_26 (* 15 x15)) 23))) (let ((?v_158 (not ?v_11)) (?v_17 (<= (+ (- (* 6 x41) 0) (* 7 x24)) (- 10))) (?v_50 (<= (+ (- (* (- 13) x22) (* 22 x47)) (* 12 x38)) 0))) (let ((?v_234 (not ?v_50)) (?v_130 (distinct (+ (- (* (- 3) x49) (* 20 x10)) (* 16 x18)) (- 7))) (?v_216 (< (+ (- (* (- 13) x19) ?v_169) (* 25 x36)) (- 1)))) (let ((?v_142 (not ?v_216)) (?v_232 (<= (- (- (* (- 3) x25) 0) (* 14 x3)) (- 1)))) (let ((?v_41 (not ?v_232)) (?v_160 (< (- (- (* (- 25) x2) (* 13 x6)) (* 12 x2)) 19))) (let ((?v_70 (not ?v_160)) (?v_33 (= (+ (- (* (- 23) x16) 0) (* 21 x36)) (- 6))) (?v_34 (<= (+ (* 15 x39) (* 17 x45) (* 2 x7)) (- 4)))) (let ((?v_47 (not ?v_34)) (?v_79 (<= (+ (- (* (- 21) x16) (* 13 x21)) (* 13 x18)) (- 18)))) (let ((?v_91 (not ?v_79)) (?v_44 (< (- (- (* (- 25) x16) (* 26 x48)) (* 17 x3)) (- 1)))) (let ((?v_132 (not ?v_44)) (?v_83 (= (- (- (* (- 18) x44) (* 22 x44)) (* 18 x49)) 14))) (let ((?v_118 (not ?v_83)) (?v_171 (<= (+ (* (- 19) x30) (* 25 x40) (* 25 x12)) (- 27)))) (let ((?v_96 (not ?v_171)) (?v_37 (< (+ (* (- 5) x39) (* 10 x26) ?v_77) (- 12))) (?v_20 (< (- (- (* 27 x17) (* 27 x26)) (* 3 x35)) (- 2))) (?v_150 (distinct (+ (* (- 13) x14) (* 22 x35) (* 22 x14)) (- 21)))) (let ((?v_214 (not ?v_20)) (?v_201 (<= (- (- (* 16 x39) 0) (* 16 x16)) (- 11))) (?v_46 (<= (+ (* (- 4) x11) (* 23 x37) (* 8 x6)) 17))) (let ((?v_135 (not ?v_46)) (?v_100 (< (+ (- (* 14 x18) (* 24 x10)) ?v_29) (- 18)))) (let ((?v_236 (not ?v_100)) (?v_162 (< (- (- (* (- 17) x17) (* 24 x41)) (* 5 x41)) 29)) (?v_80 (<= (- (+ (* (- 22) x6) (* 6 x5)) (* 3 x45)) (- 13)))) (let ((?v_39 (not ?v_80)) (?v_52 (not ?v_17)) (?v_188 (= (- (+ (* (- 14) x6) (* 19 x27)) (* 12 x9)) (- 3)))) (let ((?v_174 (not ?v_188)) (?v_144 (not ?v_33)) (?v_212 (<= (+ (* (- 17) x3) (* 16 x13) (* 7 x40)) (- 6)))) (let ((?v_265 (not ?v_212)) (?v_87 (< (+ (- (* (- 27) x14) (* 12 x30)) x21) 8)) (?v_119 (< (+ (* (- 5) x10) (* 5 x8) (* 22 x42)) (- 23))) (?v_161 (= (- (+ (* 4 x24) (* 22 x39)) (* 8 x9)) (- 3))) (?v_107 (< (- ?v_92 (* 20 x19)) (- 11))) (?v_146 (< (+ (- (* (- 2) x23) 0) (* 27 x10)) (- 14)))) (let ((?v_238 (not ?v_146)) (?v_222 (not ?v_37)) (?v_143 (not ?v_74)) (?v_213 (<= (+ (- (* 7 x17) (* 10 x16)) (* 7 x28)) (- 11)))) (let ((?v_157 (not ?v_213)) (?v_195 (not ?v_130)) (?v_155 (< (- (* (- 24) x6) (* 9 x38)) (- 3))) (?v_167 (<= (- (- (* 5 x44) (* 27 x1)) (* 9 x15)) (- 17)))) (let ((?v_176 (not ?v_167)) (?v_196 (not ?v_162)) (?v_180 (not ?v_150)) (?v_198 (<= (- (- (* (- 8) x7) ?v_169) (* 10 x12)) (- 20)))) (let ((?v_217 (not ?v_198)) (?v_191 (not ?v_89)) (?v_209 (not ?v_87)) (?v_207 (not ?v_201)) (?v_255 (<= (- (- (* (- 27) x43) (* 23 x34)) (* 17 x7)) (- 12)))) (let ((?v_246 (not ?v_255)) (?v_261 (not ?v_119)) (?v_252 (or P26 ?v_17)) (?v_240 (not ?v_155)) (?v_257 (not ?v_107)) (?v_253 (not ?v_0))) (and (and (and (and (and (and (and (and (and (and (and (and (and (and (and (and (and (and (and (and (and (and (and (and (and (and (and (and (and (and (and (and (and (and (and (and (and (and (and (and (and (and (and (and (and (and (and (and (and (and (and (and (and (and (and (and (and (and (and (and (and (and (and (and (and (and (and (and (and (and (and (and (and (and (and (and (and (and (and (and (and (and (and (and (and (and (and (and (and (and (and (and (and (and (and (and (and (and (and (and (and (and (and (and (and (and (and (and (and (and (and (and (and (and (and (and (and (and (and (and (and (and (and (and (and (and (and (and (and (and (and (and (and (and (and (and (and (and (and (and (and (and (and (and (and (and (and (and (and (and (and (and (and (and (and (and (and (and (and (and (and (and (and (and (and (and (and (and (and (and (and (and (and (and (and (and (and (and (and (and (and (and (and (and (and (and (and (and (and (and (and (and (and (and (and (and (and (and (and (and (and (and (and (and (and (and (and (and (and (and (and (and (and (and (and (and (and (and (and (and (and (and (and (and (and (and (and (and (and (and (and (and (and (and (and (and (and (and (and (and (and (and (and (and (and (and (and (and (and (and (and (and (and (and (and (and (and (and (and (and (and (and (and (and (and (and (and (and (and (and (and (and (and (and (and (and (and (and (and (and (and (and (and (and (and (and (and (and (and (and (and (and (and (and (and (and (and (and (and (and (and (and (and (and (and (and (and (and (and (and (and (and (and (and (and (and (and (and (and (and (and (and (and (and (and (and (and (and (and (and (and (and (and (and (and (and (and (and (and (and (and (and (and (and (and (and (and (and (and (and (and (and (and (and (and (and (and (and (and (and (and (and (and (and (and (and (and (and (and (and (and (and (and (and (and (and (and (and (and (and (and (and (and (and (and (and (and (and (and (and (and (and (and (and (and (and (and (and (and (and (and (and (and (and (and (and (and (and (and (and (and (and (and (and (and (and (and (and (and (and (and (and (and (and (and (and (and (and (and (and (and (and (and (and (and (and (and (and (and (and (and (and (and (and (and (and (and (and (and (and (and (and (and (and (and (and (and (and (and (and (and (and (and (and (and (and (and (and (and (and (and (and (and (and (and (and (and (and (and (and (and (and (and (and (and (and (and (and (and (and (and (and (and (and (and (and (and (and (and (and (and (and (and (and (and (and (and (and (and (and (and (and (and (and (and (and (and (and (and (and (and (and (and (and (and (and (and (and (and (and (and (and (and (and (and (and (and (and (and (and (and (and (and (and (and (and (and (and (and (and (and (and (and (and (and (and (and (and (and (and (and (and (and (and (and (and (and (and (and (and (and (and (and (and (and (and (and (and (and (and (and (and (and (and (and (and (and (and (and (and (and (and (and (and (and (and (and (and (and (or (or ?v_99 ?v_0) ?v_89) (or (or ?v_156 ?v_197) ?v_112)) (or (or ?v_0 P8) ?v_116)) (or (or ?v_69 P36) ?v_103)) (or (or ?v_94 ?v_74) ?v_2)) (or (or ?v_242 P13) ?v_137)) (or (or ?v_49 ?v_57) ?v_158)) (or (or P35 ?v_199) P29)) (or (or ?v_1 ?v_31) ?v_2)) (or (or ?v_17 ?v_25) ?v_15)) (or (or ?v_6 ?v_3) P10)) (or (or ?v_159 ?v_3) ?v_19)) (or (or ?v_113 ?v_38) ?v_234)) (or (or ?v_59 ?v_130) ?v_4)) (or (or ?v_14 ?v_210) ?v_151)) (or (or ?v_142 ?v_42) P8)) (or (or ?v_54 ?v_202) ?v_115)) (or (or ?v_62 ?v_41) P35)) (or (or ?v_6 ?v_13) P47)) (or (or ?v_194 P41) ?v_86)) (or (or P6 P2) ?v_72)) (or (or ?v_70 ?v_18) ?v_35)) (or (or ?v_33 ?v_47) ?v_152)) (or (or ?v_91 ?v_132) ?v_71)) (or (or ?v_118 ?v_16) ?v_187)) (or (or ?v_21 ?v_9) ?v_61)) (or (or ?v_98 P48) ?v_53)) (or (or P28 ?v_11) ?v_30)) (or (or ?v_6 ?v_12) ?v_56)) (or (or ?v_14 ?v_96) ?v_189)) (or (or ?v_106 ?v_28) ?v_15)) (or (or ?v_16 ?v_17) P31)) (or (or ?v_203 ?v_37) P43)) (or (or ?v_73 ?v_13) P0)) (or (or ?v_58 ?v_125) ?v_20)) (or (or P17 ?v_150) P3)) (or (or ?v_36 ?v_214) ?v_21)) (or (or P11 ?v_32) ?v_177)) (or (or ?v_201 ?v_51) ?v_22)) (or (or ?v_185 ?v_85) ?v_25)) (or (or ?v_110 P37) ?v_135)) (or (or P5 ?v_124) ?v_67)) (or (or ?v_28 ?v_236) ?v_154)) (or (or ?v_30 ?v_108) ?v_183)) (or (or ?v_162 P45) ?v_121)) (or (or ?v_13 P40) ?v_33)) (or (or ?v_184 ?v_34) ?v_104)) (or (or ?v_43 ?v_237) ?v_114)) (or (or ?v_36 ?v_37) P36)) (or (or ?v_38 P31) ?v_76)) (or (or ?v_39 ?v_129) P26)) (or (or ?v_39 ?v_55) ?v_134)) (or (or ?v_40 ?v_41) ?v_218)) (or (or ?v_1 ?v_43) ?v_75)) (or (or ?v_44 ?v_90) ?v_84)) (or (or ?v_12 ?v_45) ?v_46)) (or (or ?v_47 P43) ?v_225)) (or (or P35 ?v_17) ?v_48)) (or (or ?v_52 ?v_101) ?v_204)) (or (or ?v_50 ?v_51) ?v_52)) (or (or ?v_53 ?v_54) ?v_105)) (or (or ?v_81 P35) ?v_18)) (or (or ?v_55 ?v_174) ?v_56)) (or (or P45 P11) ?v_144)) (or (or ?v_57 ?v_182) ?v_59)) (or (or ?v_145 ?v_20) ?v_66)) (or (or ?v_61 ?v_62) ?v_63)) (or (or ?v_228 P49) ?v_64)) (or (or ?v_122 P33) ?v_66)) (or (or ?v_192 P10) P45)) (or (or ?v_68 P14) ?v_265)) (or (or ?v_50 ?v_69) ?v_70)) (or (or ?v_87 P22) ?v_71)) (or (or ?v_224 ?v_43) ?v_72)) (or (or ?v_153 P41) ?v_73)) (or (or ?v_119 P4) ?v_74)) (or (or ?v_133 ?v_76) ?v_72)) (or (or ?v_64 ?v_82) ?v_168)) (or (or ?v_78 ?v_79) ?v_80)) (or (or ?v_3 ?v_102) ?v_2)) (or (or ?v_39 ?v_82) P27)) (or (or ?v_83 (not ?v_161)) ?v_43)) (or (or ?v_37 ?v_84) P9)) (or (or P3 ?v_148) ?v_88)) (or (or ?v_87 ?v_88) ?v_179)) (or (or P44 P25) ?v_52)) (or (or ?v_138 ?v_93) ?v_260)) (or (or ?v_81 P41) ?v_89)) (or (or ?v_61 ?v_215) ?v_91)) (or (or ?v_107 ?v_93) ?v_80)) (or (or ?v_59 ?v_81) P2)) (or (or ?v_238 ?v_94) ?v_15)) (or (or ?v_12 P12) P8)) (or (or ?v_166 ?v_36) P26)) (or (or ?v_96 ?v_6) ?v_97)) (or (or ?v_98 ?v_99) P17)) (or (or ?v_98 ?v_64) ?v_100)) (or (or ?v_87 ?v_101) ?v_56)) (or (or ?v_102 ?v_103) ?v_28)) (or (or ?v_13 P21) ?v_111)) (or (or ?v_104 ?v_49) ?v_44)) (or (or ?v_222 ?v_143) ?v_249)) (or (or ?v_127 ?v_105) P15)) (or (or ?v_106 ?v_33) ?v_107)) (or (or ?v_108 ?v_109) ?v_110)) (or (or P39 P39) ?v_106)) (or (or ?v_111 ?v_33) ?v_112)) (or (or ?v_230 ?v_19) P31)) (or (or ?v_19 ?v_74) ?v_113)) (or (or ?v_114 ?v_88) ?v_85)) (or (or P15 ?v_64) ?v_62)) (or (or ?v_115 ?v_116) ?v_83)) (or (or ?v_117 P14) ?v_149)) (or (or P40 ?v_105) ?v_116)) (or (or ?v_118 ?v_94) ?v_119)) (or (or P45 ?v_128) ?v_120)) (or (or ?v_56 ?v_121) P30)) (or (or ?v_193 ?v_32) ?v_229)) (or (or ?v_107 P16) ?v_123)) (or (or ?v_54 P37) ?v_114)) (or (or ?v_124 ?v_104) ?v_53)) (or (or ?v_157 ?v_21) ?v_125)) (or (or P11 ?v_49) ?v_73)) (or (or ?v_48 ?v_86) ?v_126)) (or (or ?v_32 P2) P48)) (or (or ?v_140 ?v_58) ?v_127)) (or (or ?v_136 ?v_17) P32)) (or (or ?v_128 P25) ?v_127)) (or (or ?v_109 ?v_129) ?v_43)) (or (or ?v_128 ?v_90) ?v_59)) (or (or ?v_3 P29) ?v_195)) (or (or P10 P37) ?v_131)) (or (or ?v_56 ?v_57) ?v_132)) (or (or ?v_0 ?v_88) P11)) (or (or ?v_58 ?v_133) ?v_165)) (or (or P21 ?v_134) ?v_135)) (or (or ?v_206 ?v_97) P24)) (or (or ?v_136 ?v_93) ?v_73)) (or (or P31 ?v_37) ?v_137)) (or (or ?v_138 ?v_20) P27)) (or (or ?v_136 ?v_139) ?v_231)) (or (or ?v_17 ?v_72) ?v_140)) (or (or ?v_125 P35) ?v_141)) (or (or ?v_100 P11) ?v_139)) (or (or ?v_84 ?v_142) ?v_143)) (or (or ?v_144 ?v_25) ?v_136)) (or (or ?v_6 ?v_145) ?v_80)) (or (or ?v_155 ?v_146) ?v_147)) (or (or P32 ?v_114) ?v_49)) (or (or P31 ?v_262) P32)) (or (or ?v_101 ?v_3) ?v_148)) (or (or ?v_99 ?v_149) ?v_55)) (or (or ?v_264 P43) ?v_150)) (or (or ?v_100 ?v_11) ?v_151)) (or (or ?v_186 ?v_102) ?v_119)) (or (or P42 ?v_43) ?v_152)) (or (or ?v_112 ?v_153) P11)) (or (or P39 ?v_154) ?v_141)) (or (or ?v_140 ?v_4) ?v_91)) (or (or ?v_155 ?v_109) ?v_156)) (or (or ?v_119 ?v_157) P27)) (or (or ?v_22 P23) ?v_158)) (or (or ?v_128 ?v_48) ?v_176)) (or (or ?v_248 ?v_159) P29)) (or (or ?v_53 ?v_160) ?v_161)) (or (or ?v_58 ?v_104) ?v_196)) (or (or P25 ?v_145) ?v_132)) (or (or ?v_152 ?v_80) ?v_254)) (or (or P35 P44) ?v_13)) (or (or ?v_4 ?v_54) P30)) (or (or ?v_35 ?v_178) ?v_28)) (or (or ?v_250 ?v_164) ?v_175)) (or (or ?v_18 ?v_164) P15)) (or (or P31 ?v_165) ?v_180)) (or (or P9 P24) P12)) (or (or ?v_166 ?v_86) ?v_167)) (or (or ?v_101 ?v_25) P0)) (or (or P41 P34) ?v_168)) (or (or ?v_42 ?v_15) ?v_50)) (or (or ?v_141 P1) ?v_148)) (or (or ?v_217 ?v_66) ?v_25)) (or (or ?v_170 ?v_190) ?v_124)) (or (or P27 ?v_171) ?v_47)) (or (or ?v_191 ?v_244) ?v_154)) (or (or ?v_172 ?v_219) P1)) (or (or P31 ?v_107) P41)) (or (or ?v_81 ?v_173) ?v_130)) (or (or ?v_112 ?v_155) P41)) (or (or ?v_71 ?v_36) ?v_174)) (or (or P28 ?v_137) ?v_175)) (or (or ?v_176 ?v_116) ?v_124)) (or (or P23 ?v_177) ?v_147)) (or (or ?v_208 ?v_33) P15)) (or (or ?v_3 P37) ?v_179)) (or (or ?v_51 ?v_180) ?v_209)) (or (or ?v_181 P15) ?v_138)) (or (or ?v_182 ?v_200) ?v_122)) (or (or ?v_138 ?v_102) ?v_146)) (or (or ?v_145 ?v_142) ?v_53)) (or (or ?v_183 ?v_149) ?v_184)) (or (or ?v_71 P12) ?v_185)) (or (or ?v_88 ?v_233) ?v_28)) (or (or ?v_171 ?v_39) ?v_17)) (or (or ?v_185 ?v_186) ?v_187)) (or (or ?v_174 ?v_62) ?v_30)) (or (or P9 ?v_16) ?v_185)) (or (or ?v_30 ?v_188) ?v_134)) (or (or ?v_32 P29) ?v_205)) (or (or ?v_223 ?v_18) ?v_101)) (or ?v_247 ?v_190)) (or (or ?v_177 ?v_158) ?v_41)) (or (or ?v_97 P8) ?v_166)) (or (or P32 P49) ?v_136)) (or (or ?v_147 ?v_107) ?v_191)) (or (or ?v_83 ?v_161) P6)) (or (or ?v_28 ?v_154) ?v_43)) (or (or ?v_154 P22) ?v_54)) (or (or ?v_211 ?v_40) ?v_192)) (or (or P24 P18) ?v_88)) (or (or ?v_148 ?v_17) ?v_193)) (or (or ?v_19 ?v_102) ?v_159)) (or (or P0 ?v_84) ?v_183)) (or (or P32 ?v_194) ?v_90)) (or (or ?v_86 ?v_195) ?v_30)) (or (or P35 ?v_109) ?v_157)) (or (or ?v_221 P10) ?v_22)) (or (or P48 P6) ?v_136)) (or (or ?v_196 ?v_243) ?v_2)) (or (or ?v_38 P21) ?v_197)) (or (or ?v_198 ?v_110) ?v_80)) (or (or ?v_199 P43) P11)) (or (or ?v_200 ?v_90) ?v_17)) (or (or ?v_191 ?v_207) ?v_178)) (or (or ?v_202 ?v_144) ?v_36)) (or (or ?v_115 ?v_12) ?v_88)) (or (or ?v_203 ?v_73) ?v_204)) (or (or ?v_2 ?v_186) ?v_37)) (or (or ?v_19 ?v_21) ?v_245)) (or (or ?v_106 ?v_127) ?v_46)) (or (or ?v_88 ?v_205) ?v_220)) (or (or ?v_73 ?v_155) ?v_206)) (or (or ?v_70 ?v_151) ?v_48)) (or (or ?v_159 ?v_83) ?v_188)) (or (or ?v_200 ?v_110) ?v_193)) (or (or ?v_124 ?v_88) ?v_57)) (or (or P20 P12) ?v_246)) (or (or ?v_130 ?v_68) ?v_207)) (or (or ?v_251 ?v_88) ?v_20)) (or (or ?v_261 ?v_6) ?v_208)) (or (or ?v_107 ?v_44) P34)) (or (or ?v_182 ?v_154) ?v_138)) (or (or ?v_209 ?v_61) ?v_180)) (or (or ?v_194 ?v_210) ?v_115)) (or (or ?v_18 ?v_115) ?v_151)) (or (or P43 ?v_17) ?v_91)) (or (or ?v_70 P18) ?v_50)) (or (or ?v_37 ?v_211) ?v_185)) (or (or ?v_123 ?v_107) ?v_47)) (or (or ?v_212 ?v_157) ?v_193)) (or (or ?v_137 ?v_137) P48)) (or (or P22 ?v_63) ?v_55)) (or (or P49 ?v_12) P8)) (or (or ?v_120 ?v_213) ?v_62)) (or (or ?v_18 ?v_33) ?v_226)) (or (or ?v_214 ?v_91) ?v_198)) (or (or P30 ?v_215) P23)) (or (or ?v_40 ?v_215) ?v_91)) (or (or ?v_216 P13) ?v_55)) (or (or ?v_168 ?v_68) ?v_217)) (or (or ?v_32 ?v_135) ?v_218)) (or (or ?v_219 ?v_135) P28)) (or (or P19 P44) ?v_66)) (or (or ?v_185 ?v_220) ?v_166)) (or (or ?v_192 ?v_55) P31)) (or (or P23 ?v_80) ?v_266)) (or (or ?v_157 ?v_128) ?v_221)) (or (or P25 P9) P10)) (or (or ?v_131 ?v_203) ?v_188)) (or (or ?v_93 ?v_235) ?v_19)) (or (or ?v_9 ?v_75) ?v_116)) (or (or ?v_219 ?v_222) ?v_223)) (or (or ?v_176 ?v_76) ?v_99)) (or (or ?v_224 ?v_147) ?v_28)) (or (or ?v_189 ?v_141) P22)) (or (or ?v_184 ?v_220) ?v_143)) (or (or ?v_225 ?v_226) ?v_227)) (or (or ?v_139 ?v_19) ?v_61)) (or (or P30 ?v_31) ?v_102)) (or (or ?v_228 ?v_36) ?v_224)) (or ?v_252 ?v_34)) (or (or ?v_46 ?v_229) ?v_151)) (or (or ?v_20 ?v_85) ?v_230)) (or (or P35 ?v_231) P14)) (or (or ?v_228 P43) ?v_141)) (or (or P18 P49) P41)) (or (or ?v_113 ?v_200) ?v_72)) (or (or ?v_217 ?v_147) ?v_111)) (or (or ?v_66 P10) P43)) (or (or ?v_221 ?v_232) P16)) (or (or ?v_155 ?v_125) ?v_62)) (or (or ?v_164 ?v_212) P49)) (or (or ?v_44 ?v_83) ?v_241)) (or (or ?v_12 ?v_18) ?v_156)) (or (or ?v_40 ?v_192) ?v_196)) (or (or P30 ?v_50) ?v_1)) (or (or ?v_135 ?v_42) ?v_233)) (or (or ?v_114 ?v_165) ?v_99)) (or (or ?v_165 ?v_63) ?v_98)) (or (or ?v_107 ?v_206) ?v_146)) (or (or ?v_25 ?v_153) ?v_134)) (or (or ?v_154 ?v_11) ?v_80)) (or (or ?v_21 ?v_256) P39)) (or (or P26 ?v_69) ?v_18)) (or (or ?v_223 ?v_45) ?v_30)) (or (or ?v_126 ?v_99) ?v_148)) (or (or ?v_6 ?v_224) ?v_56)) (or (or ?v_234 ?v_96) ?v_32)) (or (or ?v_2 ?v_235) ?v_74)) (or (or P23 ?v_15) ?v_189)) (or (or ?v_62 ?v_208) P49)) (or (or ?v_53 ?v_87) ?v_170)) (or (or P17 ?v_167) ?v_93)) (or (or ?v_198 ?v_137) ?v_11)) (or (or ?v_203 ?v_149) ?v_166)) (or (or ?v_236 ?v_237) ?v_219)) (or (or ?v_238 P43) P45)) (or (or ?v_132 P18) P32)) (or (or ?v_13 P30) ?v_240)) (or (or ?v_166 ?v_172) ?v_227)) (or (or ?v_17 ?v_88) ?v_111)) (or (or ?v_234 ?v_70) ?v_142)) (or (or ?v_146 P31) ?v_177)) (or (or ?v_257 ?v_204) ?v_142)) (or (or ?v_147 ?v_89) ?v_57)) (or (or ?v_99 P7) P6)) (or (or ?v_158 ?v_2) ?v_137)) (or (or P35 ?v_135) ?v_53)) (or (or P6 ?v_239) ?v_79)) (or (or ?v_15 ?v_231) ?v_120)) (or (or ?v_38 P17) ?v_179)) (or (or P37 P43) ?v_188)) (or (or ?v_38 P49) ?v_166)) (or (or ?v_122 ?v_32) ?v_30)) (or (or ?v_150 ?v_135) ?v_195)) (or (or ?v_1 ?v_164) ?v_85)) (or (or P20 ?v_49) ?v_114)) (or (or ?v_66 ?v_217) ?v_205)) (or (or ?v_6 P35) ?v_132)) (or (or ?v_229 P41) ?v_3)) (or (or ?v_143 ?v_117) ?v_9)) (or (or ?v_240 ?v_241) ?v_141)) (or (or ?v_42 ?v_242) ?v_158)) (or (or ?v_70 ?v_197) ?v_36)) (or (or ?v_234 ?v_75) P32)) (or (or ?v_160 ?v_195) ?v_218)) (or (or ?v_207 P4) ?v_154)) (or (or ?v_116 ?v_122) ?v_117)) (or (or ?v_48 ?v_225) ?v_52)) (or (or ?v_243 ?v_89) ?v_119)) (or (or ?v_206 ?v_148) P3)) (or (or P14 ?v_212) ?v_124)) (or (or ?v_126 ?v_240) ?v_146)) (or (or ?v_155 ?v_51) ?v_120)) (or (or P12 ?v_106) ?v_99)) (or (or ?v_80 ?v_89) ?v_28)) (or (or ?v_58 ?v_177) ?v_84)) (or (or ?v_244 ?v_76) ?v_55)) (or (or ?v_75 ?v_132) ?v_161)) (or (or ?v_43 P31) ?v_143)) (or (or ?v_12 P15) P36)) (or (or ?v_104 P19) ?v_91)) (or (or ?v_1 ?v_107) ?v_118)) (or (or ?v_146 ?v_179) ?v_196)) (or (or P39 ?v_105) ?v_136)) (or (or ?v_66 ?v_104) P38)) (or (or ?v_112 ?v_25) ?v_188)) (or (or P33 ?v_84) ?v_196)) (or (or ?v_212 P39) ?v_174)) (or (or ?v_217 ?v_245) P17)) (or (or ?v_145 P37) ?v_135)) (or (or ?v_164 ?v_246) ?v_42)) (or (or ?v_183 ?v_166) ?v_175)) (or (or ?v_120 ?v_209) ?v_229)) (or (or P47 ?v_116) ?v_211)) (or (or ?v_168 ?v_150) ?v_202)) (or ?v_247 ?v_211)) (or (or ?v_39 ?v_106) ?v_219)) (or (or ?v_235 ?v_35) ?v_125)) (or (or ?v_47 ?v_248) ?v_22)) (or (or P34 P38) ?v_111)) (or (or ?v_249 ?v_250) ?v_35)) (or (or ?v_69 ?v_119) ?v_191)) (or (or ?v_37 ?v_238) P24)) (or (or ?v_132 ?v_157) ?v_253)) (or (or ?v_174 P39) ?v_250)) (or (or P26 ?v_46) ?v_180)) (or (or ?v_133 ?v_90) ?v_240)) (or (or P17 ?v_251) P22)) (or (or ?v_243 ?v_236) ?v_64)) (or (or ?v_119 ?v_2) ?v_161)) (or (or ?v_149 ?v_39) ?v_150)) (or ?v_252 ?v_156)) (or (or ?v_253 ?v_206) ?v_208)) (or (or ?v_185 ?v_9) P48)) (or (or ?v_246 ?v_51) ?v_179)) (or (or ?v_162 ?v_154) P23)) (or (or ?v_98 ?v_254) ?v_178)) (or (or ?v_190 ?v_12) ?v_213)) (or (or ?v_214 P10) ?v_128)) (or (or ?v_200 ?v_157) ?v_225)) (or (or P45 P30) P42)) (or (or ?v_205 ?v_3) ?v_150)) (or (or ?v_253 P13) ?v_100)) (or (or ?v_9 ?v_185) ?v_191)) (or (or P19 P39) ?v_204)) (or (or ?v_141 ?v_69) ?v_206)) (or (or P45 ?v_83) ?v_232)) (or (or ?v_235 ?v_197) ?v_123)) (or (or ?v_254 ?v_138) P12)) (or (or ?v_245 ?v_153) ?v_89)) (or (or ?v_154 ?v_137) ?v_216)) (or (or ?v_227 P36) P3)) (or (or ?v_155 ?v_205) ?v_0)) (or (or ?v_72 P24) ?v_210)) (or (or ?v_75 P23) ?v_13)) (or (or ?v_140 P49) P17)) (or (or ?v_108 ?v_136) ?v_258)) (or (or ?v_30 ?v_58) ?v_179)) (or (or ?v_76 ?v_140) ?v_231)) (or (or ?v_211 P9) ?v_140)) (or (or ?v_185 ?v_82) ?v_199)) (or (or ?v_36 ?v_22) ?v_219)) (or (or ?v_30 ?v_113) P35)) (or (or ?v_235 ?v_214) ?v_226)) (or (or ?v_22 ?v_131) ?v_6)) (or (or ?v_165 ?v_213) P45)) (or (or ?v_93 ?v_218) ?v_155)) (or (or ?v_186 ?v_222) P21)) (or (or ?v_2 P12) ?v_197)) (or (or P8 ?v_221) ?v_33)) (or (or ?v_160 ?v_21) ?v_231)) (or (or P32 ?v_36) ?v_44)) (or (or ?v_134 ?v_205) ?v_182)) (or (or ?v_171 ?v_255) ?v_105)) (or (or ?v_64 ?v_124) ?v_71)) (or (or ?v_256 ?v_245) ?v_61)) (or (or ?v_148 ?v_141) ?v_104)) (or (or ?v_105 ?v_68) ?v_215)) (or (or ?v_19 ?v_173) ?v_223)) (or (or ?v_233 P48) ?v_257)) (or (or ?v_110 ?v_256) ?v_58)) (or (or ?v_178 ?v_90) ?v_212)) (or (or ?v_144 P25) ?v_107)) (or (or ?v_254 ?v_108) ?v_52)) (or (or ?v_102 ?v_101) ?v_58)) (or (or ?v_156 ?v_128) ?v_87)) (or (or ?v_138 ?v_113) P25)) (or (or ?v_93 P9) ?v_229)) (or (or ?v_46 ?v_106) ?v_166)) (or (or ?v_248 ?v_50) ?v_61)) (or (or ?v_104 ?v_258) ?v_154)) (or (or ?v_76 P43) ?v_259)) (or (or ?v_162 P4) ?v_53)) (or (or ?v_239 ?v_37) ?v_94)) (or (or P20 ?v_48) P22)) (or (or ?v_70 ?v_221) ?v_239)) (or (or ?v_25 ?v_47) ?v_244)) (or (or ?v_259 ?v_151) ?v_2)) (or (or ?v_69 P40) ?v_193)) (or (or ?v_70 ?v_240) ?v_146)) (or (or ?v_99 P49) ?v_73)) (or (or ?v_191 ?v_91) P19)) (or (or ?v_62 ?v_232) ?v_83)) (or (or ?v_131 ?v_260) ?v_222)) (or (or ?v_143 ?v_211) ?v_78)) (or (or P41 ?v_43) P47)) (or (or P29 ?v_136) ?v_225)) (or (or ?v_113 ?v_125) ?v_21)) (or (or P36 ?v_58) P10)) (or (or ?v_173 ?v_217) ?v_59)) (or (or P27 ?v_178) ?v_6)) (or (or ?v_227 ?v_97) ?v_261)) (or (or ?v_213 ?v_85) P1)) (or (or ?v_183 ?v_72) ?v_112)) (or (or P15 ?v_123) ?v_149)) (or (or ?v_142 ?v_147) ?v_129)) (or (or P33 ?v_245) ?v_226)) (or (or ?v_17 P11) ?v_193)) (or (or ?v_198 ?v_71) P17)) (or (or P49 ?v_256) ?v_1)) (or (or P47 ?v_20) ?v_183)) (or (or ?v_211 ?v_150) P38)) (or (or ?v_85 ?v_148) ?v_150)) (or ?v_263 ?v_195)) (or (or ?v_17 ?v_17) ?v_126)) (or (or ?v_179 ?v_34) P38)) (or (or ?v_189 ?v_192) ?v_148)) (or (or ?v_124 ?v_99) P34)) (or (or ?v_67 ?v_161) ?v_51)) (or (or P16 ?v_18) ?v_251)) (or (or P29 P18) ?v_20)) (or (or ?v_250 ?v_152) P21)) (or (or ?v_93 ?v_131) ?v_241)) (or (or ?v_90 ?v_190) ?v_182)) (or (or ?v_221 ?v_118) ?v_97)) (or (or P43 P20) ?v_253)) (or (or ?v_242 ?v_262) ?v_124)) (or (or P49 ?v_206) P16)) (or (or ?v_111 ?v_249) ?v_233)) (or (or ?v_53 P44) ?v_236)) (or (or ?v_19 ?v_79) ?v_133)) (or (or ?v_220 P5) ?v_126)) (or (or ?v_203 ?v_192) P36)) (or (or ?v_93 ?v_208) ?v_202)) (or (or P2 ?v_76) ?v_211)) (or (or ?v_127 ?v_230) ?v_156)) (or (or ?v_253 P35) ?v_166)) (or (or ?v_257 ?v_176) ?v_166)) (or (or ?v_97 P36) ?v_258)) (or (or P29 ?v_9) ?v_262)) (or ?v_263 ?v_189)) (or (or P28 ?v_116) ?v_181)) (or (or ?v_131 ?v_264) ?v_220)) (or (or ?v_130 ?v_110) ?v_109)) (or (or ?v_188 ?v_149) ?v_154)) (or (or ?v_249 P27) P0)) (or (or ?v_2 ?v_159) ?v_139)) (or (or P17 ?v_59) ?v_265)) (or (or ?v_124 ?v_14) ?v_161)) (or (or ?v_61 P7) ?v_94)) (or (or ?v_195 ?v_71) ?v_102)) (or (or ?v_200 P43) ?v_14)) (or (or P23 ?v_52) ?v_20)) (or (or ?v_131 ?v_53) P17)) (or (or ?v_130 ?v_267) P36)) (or (or P40 P29) ?v_160)) (or (or ?v_266 ?v_49) ?v_108)) (or (or ?v_37 ?v_237) ?v_4)) (or (or P31 P1) ?v_49)) (or (or ?v_240 ?v_173) ?v_211)) (or (or ?v_25 ?v_39) ?v_229)) (or (or ?v_2 ?v_107) ?v_158)) (or (or ?v_66 ?v_178) ?v_63)) (or (or ?v_232 P31) ?v_139)) (or (or ?v_264 ?v_122) ?v_220)) (or (or ?v_75 ?v_245) ?v_227)) (or (or ?v_141 ?v_192) P10)) (or (or ?v_35 ?v_192) P14)) (or (or ?v_133 ?v_46) P12)) (or (or ?v_117 ?v_126) ?v_79)) (or (or ?v_9 ?v_39) ?v_110)) (or (or ?v_145 ?v_255) ?v_89)) (or (or ?v_74 ?v_240) ?v_176)) (or (or ?v_123 ?v_162) ?v_172)) (or (or ?v_85 ?v_50) P39)) (or (or ?v_243 ?v_93) ?v_16)) (or (or ?v_255 ?v_249) ?v_28)) (or (or ?v_161 ?v_190) P5)) (or (or ?v_257 ?v_151) ?v_167)) (or (or ?v_14 ?v_39) ?v_233)) (or (or ?v_125 ?v_38) ?v_258)) (or (or ?v_196 ?v_82) ?v_266)) (or (or ?v_35 ?v_35) ?v_267)) (or (or ?v_122 ?v_49) P15)) (or (or ?v_21 ?v_117) ?v_213)) (or (or ?v_28 ?v_157) ?v_229)) (or (or P31 ?v_119) ?v_13)) (or (or ?v_190 ?v_183) ?v_39)) (or (or ?v_175 ?v_43) ?v_139)) (or (or P29 ?v_142) ?v_19)) (or (or ?v_249 ?v_207) ?v_13)) (or (or P19 ?v_71) ?v_134)) (or (or ?v_22 ?v_79) ?v_58)) (or (or ?v_175 ?v_219) ?v_149)) (or (or ?v_182 ?v_118) P43)) (or (or ?v_134 ?v_192) ?v_153)) (or (or ?v_62 P30) ?v_59)) (or (or ?v_141 ?v_89) ?v_97)) (or (or P14 P49) ?v_255)) (or (or ?v_201 ?v_0) ?v_195)) (or (or ?v_261 ?v_203) ?v_40)) (or (or P47 ?v_162) ?v_80)) (or (or P41 ?v_32) ?v_3)) (or (or ?v_256 ?v_145) P46)) (or (or ?v_9 ?v_160) ?v_244)) (or (or ?v_112 ?v_78) ?v_96)) (or (or P28 P9) P26)) (or (or P4 ?v_173) ?v_161)) (or (or P37 ?v_215) P3)) (or (or ?v_0 ?v_43) P37)) (or (or ?v_184 ?v_181) ?v_125)) (or (or ?v_99 ?v_50) P33)) (or (or ?v_234 ?v_11) ?v_152)) (or (or ?v_132 ?v_128) ?v_33)) (or (or ?v_36 ?v_138) ?v_75)) (or (or ?v_179 ?v_94) P48)) (or (or ?v_125 ?v_16) ?v_216)) (or (or ?v_83 ?v_154) ?v_38)) (or (or ?v_180 ?v_73) P46)) (or (or ?v_244 ?v_48) ?v_58)))))))))))))))))))))))))))))))))))))))))))))
(check-sat)
(exit)
